NAME: I12491-n35-k6
COMMENT : (Fake et al, No of trucks: 6, Optimal value: )
TYPE : CVRP
DIMENSION : 35
EDGE_WEIGHT_TYPE : EUC_2D
CAPACITY : 7
NODE_COORD_SECTION
1 804 610
2 810 693
3 650 257
4 842 100
5 481 659
6 241 480
7 910 393
8 748 253
9 62 80
10 903 817
11 64 375
12 877 397
13 997 881
14 269 380
15 255 732
16 406 816
17 241 246
18 915 731
19 683 490
20 807 642
21 49 809
22 7 266
23 244 123
24 805 54
25 164 850
26 7 840
27 760 546
28 629 740
29 383 225
30 256 236
31 463 142
32 824 957
33 881 586
34 397 576
35 550 308
DEMAND_SECTION
1 0
2 1
3 1
4 1
5 1
6 1
7 1
8 1
9 1
10 1
11 1
12 1
13 1
14 1
15 1
16 1
17 1
18 1
19 1
20 1
21 1
22 1
23 1
24 1
25 1
26 1
27 1
28 1
29 1
30 1
31 1
32 1
33 1
34 1
35 1
DEPOT_SECTION
 1
 -1
 EOF 